NAME : portgen-26-45
COMMENT : portgen N=26, seed=45
TYPE : TSP
DIMENSION : 26
EDGE_WEIGHT_TYPE : EUC_2D
NODE_COORD_SECTION
1 203573 544607
2 501493 963318
3 471769 510161
4 284820 872953
5 246094 694973
6 10590 340836
7 355848 858734
8 569862 8914
9 139257 275011
10 721927 314595
11 947476 380331
12 535527 787845
13 704199 881290
14 878186 862556
15 702868 968238
16 974171 365716
17 564668 797395
18 154301 54863
19 760792 752720
20 748688 798072
21 16832 216507
22 614874 96091
23 525456 12708
24 511953 722197
25 815598 368185
26 643970 608183
